(declare-const X String)
; /\x2f\?[0-9a-f]{60,66}[\x3b\d]*$/U
(assert (not (str.in_re X (re.++ (str.to_re "//?") ((_ re.loop 60 66) (re.union (re.range "0" "9") (re.range "a" "f"))) (re.* (re.union (str.to_re ";") (re.range "0" "9"))) (str.to_re "/U\u{a}")))))
; too[^\n\r]*User-Agent\x3A\sHost\x3A.*IP-WindowsAttachedPalas\x2Estarware\x2Ecom\x2Fdp\x2Fsearch\?x=
(assert (not (str.in_re X (re.++ (str.to_re "too") (re.* (re.union (str.to_re "\u{a}") (str.to_re "\u{d}"))) (str.to_re "User-Agent:") (re.union (str.to_re " ") (str.to_re "\u{9}") (str.to_re "\u{a}") (str.to_re "\u{c}") (str.to_re "\u{d}")) (str.to_re "Host:") (re.* re.allchar) (str.to_re "IP-WindowsAttachedPalas.starware.com/dp/search?x=\u{a}")))))
; zmnjgmomgbdz\x2fzzmw\.gzt\s+Reports\s+HostHost\x3aHost\x3AHost\x3AMyWebSearchSearchAssistant
(assert (not (str.in_re X (re.++ (str.to_re "zmnjgmomgbdz/zzmw.gzt") (re.+ (re.union (str.to_re " ") (str.to_re "\u{9}") (str.to_re "\u{a}") (str.to_re "\u{c}") (str.to_re "\u{d}"))) (str.to_re "Reports") (re.+ (re.union (str.to_re " ") (str.to_re "\u{9}") (str.to_re "\u{a}") (str.to_re "\u{c}") (str.to_re "\u{d}"))) (str.to_re "HostHost:Host:Host:MyWebSearchSearchAssistant\u{a}")))))
; /\x2esearch\x2dms([\?\x5c\x2f]|$)/smiU
(assert (not (str.in_re X (re.++ (str.to_re "/.search-ms") (re.union (str.to_re "?") (str.to_re "\u{5c}") (str.to_re "/")) (str.to_re "/smiU\u{a}")))))
; User-Agent\x3ASurveillancecomOnline
(assert (str.in_re X (str.to_re "User-Agent:Surveillance\u{13}comOnline\u{a}")))
(check-sat)

(exit)
